n_res = 4;
rc = [ 0, 0, 0, 0 ];
n_tasks = 30;
d = [ 4, 5, 6, 3, 3, 3, 5, 7, 1, 10, 1, 8, 7, 9, 8, 7, 6, 1, 3, 10, 5, 10, 8, 1, 4, 5, 2, 8, 7, 8 ];
rr = [| 0, 0, 0, 0, 0, 0, 0, 0, 0, 0, 0, 0, 0, 0, 0, 0, 0, 0, 0, 0, 0, 0, 0, 0, 0, 0, 0, 0, 0, 0
      | 0, 0, 0, 0, 0, 0, 0, 0, 0, 0, 0, 0, 0, 0, 0, 0, 0, 0, 0, 0, 0, 0, 0, 0, 0, 0, 0, 0, 0, 0
      | 0, 0, 0, 0, 0, 0, 0, 0, 0, 0, 0, 0, 0, 0, 0, 0, 0, 0, 0, 0, 0, 0, 0, 0, 0, 0, 0, 0, 0, 0
      | 0, 0, 0, 0, 0, 0, 0, 0, 0, 0, 0, 0, 0, 0, 0, 0, 0, 0, 0, 0, 0, 0, 0, 0, 0, 0, 0, 0, 0, 0 |];
suc = [ { 29 },
       { 4, 6, 10 },
       { 11, 14 },
       { 5, 7, 16 },
       { 26 },
       { 9, 28 },
       { 8, 12, 22 },
       { 18 },
       { 24 },
       { 19 },
       { 16, 23 },
       { 13, 23 },
       { 15, 17 },
       { 20 },
       { 26 },
       { 21, 26 },
       { 19, 30 },
       { 25 },
       { 20, 27 },
       { 21, 25 },
       { 28 },
       { 25 },
       { 24 },
       { 30 },
       { 29 },
       { 27 },
       { 28 },
       {  },
       {  },
       {  } ];
